webassembly/ejemplos_dzn/folder7_json_41.dzn
TERM = { '.', 'in_1', 'local_0', 'local_1', 's(1)', 's(0)', 'in_0'};
null = '.';
s = 7;
n = 8;
ndeps = 2;
max_registers_sz = 4;
NR = 1;
registers = [|'local_1', 'local_0'|];
dependencies = [|'i32.store8_0', 'i32.load_3', |'i32.store8_0', 'i32.load_4'|];
GET_ENUM = { GET1, GET2, GET3, GET4, GET5};
SET_ENUM = { SET1, SET2, SET3, SET4, SET5};
TEE_ENUM = { TEE1, TEE2, TEE3, TEE4, TEE5};
N = 4;
OP = { 'i32.store8_0', 'i32.load_3', 'i32.load_4', 'local.get_0' };
in_ops = [2, 1, 1, 0 ];
out_ops = [0, 1, 1, 1 ];
in1 = ['in_0', 'local_1', 's(0)', '.' ];
in2 = ['in_1', '.', '.', '.' ];
in3 = ['.', '.', '.', '.' ];
out1 = ['.', 's(0)', 's(1)', 'local_0' ];
out2 = ['.', '.', '.', '.' ];
out3 = ['.', '.', '.', '.' ];
comm = [false, false, false, false ];
gas = [1, 1, 1, 1 ];
sz = [1, 1, 1, 1 ];
stor = [true, false, false, false ];
lb = [ 1, 1, 1, 1 ];
ub = [ 7, 7, 7, 7 ];
startstack = [ 'in_0', 'in_1', null, null, null, null, null, null ];
endstack = [ 's(1)', 'local_0', null, null, null, null, null, null ];
